 $CONTRL ISPHER=1 COORD=UNIQUE SCFTYP=RHF DFTTYP=#FUNCTIONAL#
 TDDFT=EXCITE RUNTYP=ENERGY  MULT=1 ICHARG=-1 MAXIT=100  $END
 $TDDFT NSTATE=10 MULT=1 IROOT=1 TAMMD=.f. $END
 $SYSTEM MWORDS=100 $END
 $BASIS #BASIS# $END
 $SCF DIRSCF=.t. FDIFF=.f. DIIS=.t. $END

