 $CONTRL COORD=UNIQUE SCFTYP=RHF ISPHER=1 MAXIT=100 MULT=1
 DFTTYP=#FUNCTIONAL# RUNTYP=OPTIMIZE ICHARG=#CHARGE# $END
 $SYSTEM MWORDS=100 TIMLIM=600 $END
 $BASIS #BASIS# $END
 $GUESS GUESS=HUCKEL $END
 $SCF DIRSCF=.t. FDIFF=.f. DIIS=.t. $END
 $DFT IDCVER=3 $END
 $STATPT NSTEP=50 PROJCT=.f. OPTTOL=0.0005 $END

