 $CONTRL COORD=UNIQUE SCFTYP=RHF DFTTYP=#FUNCTIONAL# RUNTYP=OPTIMIZE ISPHER=1
 ICHARG=-1 MULT=1 MAXIT=100 $END
 $SYSTEM MWORDS=100 TIMLIM=120 $END
 $BASIS #BASIS# $END
 $GUESS GUESS=HUCKEL $END
 $SCF DIRSCF=.t. FDIFF=.f. DIIS=.t. CONV=1.0d-05 $END
 $DFT SWOFF=5.0d-3 SWITCH=3.0d-4 GTHRE=10 IDCVER=3 THRESH=1.0d-15 NRAD=126 
 NLEB=590 NRAD0=126 NLEB0=590 $END
 $STATPT NSTEP=50 OPTTOL=0.00045 $END

