 $CONTRL ISPHER=1 COORD=UNIQUE SCFTYP=RHF MULT=1 MAXIT=100
 DFTTYP=#FUNCTIONAL# TDDFT=EXCITE RUNTYP=ENERGY ICHARG=#CHARGE# $END
 $TDDFT NSTATE=10 MULT=1 IROOT=1 TAMMD=.f. $END
 $SYSTEM MWORDS=100 TIMLIM=2875 $END
 $BASIS #BASIS# $END
 $SCF DIRSCF=.t. FDIFF=.f. DIIS=.t. $END 

